50 8
407 346
445 753
483 911
896 344
554 812
166 402
696 623
750 149
847 414
410 684
539 726
545 965
671 743
184 702
743 200
587 678
411 777
469 308
477 617
537 820
396 618
67 553
509 579
187 704
117 420
217 745
490 970
602 760
639 655
485 810
737 675
207 627
536 696
270 719
469 788
623 390
406 756
379 906
645 769
258 792
631 349
584 848
686 773
532 845
750 215
242 442
580 840
581 113
184 377
166 419
